p cnf 30 77
a 5 7 0
d 1 5 0
d 3 7 0
d 2 5 0
d 4 5 7 0
d 6 5 7 0
d 8 5 7 0
d 9 7 0
d 10 5 7 0
d 11 5 7 0
d 12 5 7 0
d 13 5 7 0
d 14 5 0
d 15 5 7 0
d 16 5 7 0
d 17 5 7 0
d 18 5 7 0
d 19 5 7 0
d 20 7 0
d 21 5 7 0
d 22 5 7 0
d 23 5 7 0
d 24 5 7 0
d 25 5 7 0
d 26 5 7 0
d 27 5 7 0
d 28 5 7 0
d 29 5 7 0
d 30 5 7 0
2 1 0
-2 -1 0
-4 2 0
-4 3 0
4 -2 -3 0
-6 4 0
-6 5 0
6 -4 -5 0
-8 6 0
-8 7 0
8 -6 -7 0
9 3 0
-9 -3 0
-10 2 0
-10 9 0
10 -2 -9 0
-11 10 0
-11 5 0
11 -10 -5 0
-12 11 0
-12 7 0
12 -11 -7 0
13 -8 0
13 -12 0
-13 8 12 0
14 5 0
-14 -5 0
-15 4 0
-15 14 0
15 -4 -14 0
-16 15 0
-16 7 0
16 -15 -7 0
17 -13 0
17 -16 0
-17 13 16 0
-18 1 0
-18 3 0
18 -1 -3 0
-19 18 0
-19 5 0
19 -18 -5 0
20 7 0
-20 -7 0
-21 19 0
-21 20 0
21 -19 -20 0
22 -17 0
22 -21 0
-22 17 21 0
-23 6 0
-23 20 0
23 -6 -20 0
24 -22 0
24 -23 0
-24 22 23 0
-25 1 0
-25 9 0
25 -1 -9 0
-26 25 0
-26 14 0
26 -25 -14 0
-27 26 0
-27 20 0
27 -26 -20 0
28 -24 0
28 -27 0
-28 24 27 0
29 -5 7 0
29 5 -7 0
-29 -5 -7 0
-29 5 7 0
30 -28 -29 0
30 28 29 0
-30 -28 29 0
-30 28 -29 0
30 0
